200
1000
240
240
240
239
239
239
238
237
237
237
237
236
235
234
234
234
233
233
233
233
233
232
231
231
230
230
230
229
229
226
226
226
226
226
225
224
224
223
223
222
221
221
221
221
221
220
219
219
218
218
218
218
218
217
217
217
217
217
217
217
217
216
216
215
215
215
213
213
213
212
212
212
211
211
209
208
207
207
207
206
206
206
206
205
205
205
205
205
205
203
203
203
203
202
202
202
202
201
201
201
199
199
199
198
197
197
197
195
194
194
194
194
193
193
193
193
192
192
192
191
190
190
190
190
190
190
189
189
189
188
188
188
188
188
188
187
187
187
187
186
186
186
186
186
186
185
185
185
183
183
183
182
182
182
181
180
180
180
179
179
179
179
179
178
178
178
178
178
178
178
177
176
176
176
175
175
172
172
172
171
171
171
170
170
170
170
169
169
167
167
167
165
165
165
165
165
164
163
163
163
